c description: Random 2-CNF over 15 variables and 30 clauses
c generator: CNFgen (0.9.0)
c copyright: (C) 2012-2020 Massimo Lauria <massimo.lauria@uniroma1.it>
c url: https://massimolauria.net/cnfgen
c
p cnf 15 30
-4 9 0
-13 -14 0
14 -15 0
-9 -11 0
1 -3 0
-8 13 0
-6 7 0
-6 10 0
-12 -13 0
-5 6 0
7 9 0
-11 -14 0
-7 14 0
3 6 0
11 13 0
-10 14 0
1 -14 0
4 -11 0
2 15 0
2 8 0
-8 -13 0
-1 -3 0
-3 8 0
12 15 0
5 -10 0
-8 12 0
9 15 0
-4 -11 0
-7 -12 0
-3 5 0